NAME: random-11-5323
TYPE: TSP
COMMENT: size=11 seed=5323
DIMENSION: 24
EDGE_WEIGHT_TYPE: EUC_2D
NODE_COORD_SECTION
+0 661 527
-0 661 527
+1 145 101
-1 962 983
+2 224 182
-2 593 987
+3 235 518
-3 53 576
+4 537 587
-4 440 991
+5 235 802
-5 662 767
+6 792 171
-6 594 234
+7 110 601
-7 616 919
+8 517 197
-8 684 150
+9 768 305
-9 92 415
+10 183 246
-10 577 58
+11 859 893
-11 430 670
PRECEDENCE_SECTION
+0 -0
+1 -1
+2 -2
+3 -3
+4 -4
+5 -5
+6 -6
+7 -7
+8 -8
+9 -9
+10 -10
+11 -11
EOF
